Welcome to the CBC MILP Solver 
Version: Trunk
Build Date: Apr 16 2020 

Starting solution of the Linear programming relaxation problem using Primal Simplex

Using Python-MIP package version 1.8.1
Machines:  4 Jobs:  4
Order: 
Job  0 : machine 0 ( 10 ) machine 3 ( 1 ) machine 2 ( 6 ) machine 1 ( 7 ) 
Job  1 : machine 0 ( 1 ) machine 3 ( 7 ) machine 1 ( 5 ) machine 2 ( 8 ) 
Job  2 : machine 3 ( 9 ) machine 2 ( 3 ) machine 1 ( 7 ) machine 0 ( 1 ) 
Job  3 : machine 1 ( 7 ) machine 3 ( 3 ) machine 0 ( 9 ) machine 2 ( 10 ) 
K:  44
Job  0 , e: machine  0 ( 0 ) machine  1 ( 17 ) machine  2 ( 11 ) machine  3 ( 10 ) 
Job  1 , e: machine  0 ( 0 ) machine  1 ( 8 ) machine  2 ( 13 ) machine  3 ( 1 ) 
Job  2 , e: machine  0 ( 19 ) machine  1 ( 12 ) machine  2 ( 9 ) machine  3 ( 0 ) 
Job  3 , e: machine  0 ( 10 ) machine  1 ( 0 ) machine  2 ( 19 ) machine  3 ( 7 ) 
Job  0 , f: machine  0 ( 14 ) machine  1 ( 0 ) machine  2 ( 7 ) machine  3 ( 13 ) 
Job  1 , f: machine  0 ( 20 ) machine  1 ( 8 ) machine  2 ( 0 ) machine  3 ( 13 ) 
Job  2 , f: machine  0 ( 0 ) machine  1 ( 1 ) machine  2 ( 8 ) machine  3 ( 11 ) 
Job  3 , f: machine  0 ( 10 ) machine  1 ( 22 ) machine  2 ( 0 ) machine  3 ( 19 ) 
EST and LST:
Job: 0 Machine: 0 EST: 0 LST: 20
Job: 0 Machine: 1 EST: 17 LST: 37
Job: 0 Machine: 2 EST: 11 LST: 31
Job: 0 Machine: 3 EST: 10 LST: 30
Job: 1 Machine: 0 EST: 0 LST: 23
Job: 1 Machine: 1 EST: 8 LST: 31
Job: 1 Machine: 2 EST: 13 LST: 36
Job: 1 Machine: 3 EST: 1 LST: 24
Job: 2 Machine: 0 EST: 19 LST: 43
Job: 2 Machine: 1 EST: 12 LST: 36
Job: 2 Machine: 2 EST: 9 LST: 33
Job: 2 Machine: 3 EST: 0 LST: 24
Job: 3 Machine: 0 EST: 10 LST: 25
Job: 3 Machine: 1 EST: 0 LST: 15
Job: 3 Machine: 2 EST: 19 LST: 34
Job: 3 Machine: 3 EST: 7 LST: 22
Order:
Job: 0 Machine: 0 = 0 
Job: 0 Machine: 1 = 3 
Job: 0 Machine: 2 = 2 
Job: 0 Machine: 3 = 1 
Job: 1 Machine: 0 = 0 
Job: 1 Machine: 1 = 2 
Job: 1 Machine: 2 = 3 
Job: 1 Machine: 3 = 1 
Job: 2 Machine: 0 = 3 
Job: 2 Machine: 1 = 2 
Job: 2 Machine: 2 = 1 
Job: 2 Machine: 3 = 0 
Job: 3 Machine: 0 = 2 
Job: 3 Machine: 1 = 0 
Job: 3 Machine: 2 = 3 
Job: 3 Machine: 3 = 1 
Distances:
Job 0, Machine 0 -> Machine 3: distance 10
Job 0, Machine 0 -> Machine 2: distance 11
Job 0, Machine 0 -> Machine 1: distance 17
Job 0, Machine 3 -> Machine 2: distance 1
Job 0, Machine 3 -> Machine 1: distance 7
Job 0, Machine 2 -> Machine 1: distance 6
Job 1, Machine 0 -> Machine 3: distance 1
Job 1, Machine 0 -> Machine 1: distance 8
Job 1, Machine 0 -> Machine 2: distance 13
Job 1, Machine 3 -> Machine 1: distance 7
Job 1, Machine 3 -> Machine 2: distance 12
Job 1, Machine 1 -> Machine 2: distance 5
Job 2, Machine 3 -> Machine 2: distance 9
Job 2, Machine 3 -> Machine 1: distance 12
Job 2, Machine 3 -> Machine 0: distance 19
Job 2, Machine 2 -> Machine 1: distance 3
Job 2, Machine 2 -> Machine 0: distance 10
Job 2, Machine 1 -> Machine 0: distance 7
Job 3, Machine 1 -> Machine 3: distance 7
Job 3, Machine 1 -> Machine 0: distance 10
Job 3, Machine 1 -> Machine 2: distance 19
Job 3, Machine 3 -> Machine 0: distance 3
Job 3, Machine 3 -> Machine 2: distance 12
Job 3, Machine 0 -> Machine 2: distance 9
McCormic linearization
[(1, 2), (0, 0), (3, 3), (2, 0), (2, 3), (1, 0), (0, 2)]
obj:  0.6000000000000001
solutions:  1
+ x(0,0) + 0.1x(1,0) 
C:  29.0
x(0,0) = 0.73	 x(0,1) = 19.06	 x(0,2) = 11.73	 x(0,3) = 10.73	 
x(1,0) = 2.73	 x(1,1) = 10.73	 x(1,2) = 20.27	 x(1,3) = 3.73	 
x(2,0) = 24.24	 x(2,1) = 17.24	 x(2,2) = 14.24	 x(2,3) = 5.24	 
x(3,0) = 10.00	 x(3,1) = 0.00	 x(3,2) = 19.00	 x(3,3) = 7.00	 
y(0,1,0) = 0.12	 y(1,0,0) = 0.88	 
y(0,2,0) = 0.56	 y(2,0,0) = 0.44	 
y(0,3,0) = 0.96	 y(3,0,0) = 0.04	 
y(1,2,0) = 0.51	 y(2,1,0) = 0.49	 
y(1,3,0) = 0.74	 y(3,1,0) = 0.26	 
y(2,3,0) = 0.00	 y(3,2,0) = 1.00	 
y(0,1,1) = 0.00	 y(1,0,1) = 1.00	 
y(0,2,1) = 0.20	 y(2,0,1) = 0.80	 
y(0,3,1) = 0.00	 y(3,0,1) = 1.00	 
y(1,2,1) = 0.39	 y(2,1,1) = 0.61	 
y(1,3,1) = 0.16	 y(3,1,1) = 0.84	 
y(2,3,1) = 0.00	 y(3,2,1) = 1.00	 
y(0,1,2) = 0.76	 y(1,0,2) = 0.24	 
y(0,2,2) = 0.46	 y(2,0,2) = 0.54	 
y(0,3,2) = 0.93	 y(3,0,2) = 0.07	 
y(1,2,2) = 0.00	 y(2,1,2) = 1.00	 
y(1,3,2) = 0.28	 y(3,1,2) = 0.72	 
y(2,3,2) = 0.92	 y(3,2,2) = 0.08	 
y(0,1,3) = 0.00	 y(1,0,3) = 1.00	 
y(0,2,3) = 0.15	 y(2,0,3) = 0.85	 
y(0,3,3) = 0.04	 y(3,0,3) = 0.96	 
y(1,2,3) = 0.33	 y(2,1,3) = 0.67	 
y(1,3,3) = 0.26	 y(3,1,3) = 0.74	 
y(2,3,3) = 0.19	 y(3,2,3) = 0.81	 
obj:  1.0
erro
[(0, 0), (2, 1), (2, 0), (1, 1), (2, 2), (1, 0), (0, 2)]
cliques:  0 mip: 56
C:  29.0
x(0,0) = 0.96	 x(0,1) = 17.96	 x(0,2) = 11.96	 x(0,3) = 10.96	 
x(1,0) = 0.44	 x(1,1) = 8.44	 x(1,2) = 21.00	 x(1,3) = 1.44	 
x(2,0) = 19.00	 x(2,1) = 12.00	 x(2,2) = 9.00	 x(2,3) = 0.00	 
x(3,0) = 10.00	 x(3,1) = 0.00	 x(3,2) = 19.00	 x(3,3) = 7.00	 
y(0,1,0) = 0.02	 y(1,0,0) = 0.98	 
y(0,2,0) = 0.65	 y(2,0,0) = 0.35	 
y(0,3,0) = 0.95	 y(3,0,0) = 0.05	 
y(1,2,0) = 0.85	 y(2,1,0) = 0.15	 
y(1,3,0) = 0.64	 y(3,1,0) = 0.36	 
y(2,3,0) = 0.00	 y(3,2,0) = 1.00	 
y(0,1,1) = 0.00	 y(1,0,1) = 1.00	 
y(0,2,1) = 0.04	 y(2,0,1) = 0.96	 
y(0,3,1) = 0.00	 y(3,0,1) = 1.00	 
y(1,2,1) = 0.62	 y(2,1,1) = 0.38	 
y(1,3,1) = 0.06	 y(3,1,1) = 0.94	 
y(2,3,1) = 0.00	 y(3,2,1) = 1.00	 
y(0,1,2) = 0.68	 y(1,0,2) = 0.32	 
y(0,2,2) = 0.09	 y(2,0,2) = 0.91	 
y(0,3,2) = 0.83	 y(3,0,2) = 0.17	 
y(1,2,2) = 0.00	 y(2,1,2) = 1.00	 
y(1,3,2) = 0.26	 y(3,1,2) = 0.74	 
y(2,3,2) = 0.68	 y(3,2,2) = 0.32	 
y(0,1,3) = 0.21	 y(1,0,3) = 0.79	 
y(0,2,3) = 0.09	 y(2,0,3) = 0.91	 
y(0,3,3) = 0.05	 y(3,0,3) = 0.95	 
y(1,2,3) = 0.24	 y(2,1,3) = 0.76	 
y(1,3,3) = 0.36	 y(3,1,3) = 0.64	 
y(2,3,3) = 0.40	 y(3,2,3) = 0.60	 
obj:  0.1595464233195791
solutions:  1
+ 0.1111111111111111x(1,3) + 0.1111111111111111x(2,3) 
[(1, 3), (3, 3), (3, 0), (2, 1), (2, 3), (1, 0), (1, 1)]
cliques:  1 mip: 37
C:  29.639999999999997
x(0,0) = 1.00	 x(0,1) = 18.00	 x(0,2) = 12.00	 x(0,3) = 11.00	 
x(1,0) = 0.00	 x(1,1) = 8.00	 x(1,2) = 13.00	 x(1,3) = 1.00	 
x(2,0) = 27.00	 x(2,1) = 20.00	 x(2,2) = 17.00	 x(2,3) = 8.00	 
x(3,0) = 10.00	 x(3,1) = 0.00	 x(3,2) = 19.00	 x(3,3) = 7.00	 
y(0,1,0) = 0.00	 y(1,0,0) = 1.00	 
y(0,2,0) = 0.77	 y(2,0,0) = 0.23	 
y(0,3,0) = 0.95	 y(3,0,0) = 0.05	 
y(1,2,0) = 0.88	 y(2,1,0) = 0.12	 
y(1,3,0) = 0.80	 y(3,1,0) = 0.20	 
y(2,3,0) = 0.33	 y(3,2,0) = 0.67	 
y(0,1,1) = 0.00	 y(1,0,1) = 1.00	 
y(0,2,1) = 0.35	 y(2,0,1) = 0.65	 
y(0,3,1) = 0.00	 y(3,0,1) = 1.00	 
y(1,2,1) = 0.70	 y(2,1,1) = 0.30	 
y(1,3,1) = 0.04	 y(3,1,1) = 0.96	 
y(2,3,1) = 0.00	 y(3,2,1) = 1.00	 
y(0,1,2) = 0.64	 y(1,0,2) = 0.36	 
y(0,2,2) = 0.39	 y(2,0,2) = 0.61	 
y(0,3,2) = 0.94	 y(3,0,2) = 0.06	 
y(1,2,2) = 0.30	 y(2,1,2) = 0.70	 
y(1,3,2) = 0.92	 y(3,1,2) = 0.08	 
y(2,3,2) = 0.94	 y(3,2,2) = 0.06	 
y(0,1,3) = 0.04	 y(1,0,3) = 0.96	 
y(0,2,3) = 0.26	 y(2,0,3) = 0.74	 
y(0,3,3) = 0.05	 y(3,0,3) = 0.95	 
y(1,2,3) = 0.50	 y(2,1,3) = 0.50	 
y(1,3,3) = 0.87	 y(3,1,3) = 0.13	 
y(2,3,3) = 0.08	 y(3,2,3) = 0.92	 
obj:  0.8317757009345794
solutions:  1
+ 0.04672897196261683x(1,2) + 0.01869158878504672x(0,2) 
[(1, 2), (0, 1), (1, 3), (2, 1), (2, 3), (2, 2), (0, 2)]
cliques:  1 mip: 28
C:  31.283464566929148
x(0,0) = 2.09	 x(0,1) = 24.28	 x(0,2) = 18.28	 x(0,3) = 12.09	 
x(1,0) = 0.25	 x(1,1) = 8.67	 x(1,2) = 14.09	 x(1,3) = 1.25	 
x(2,0) = 26.78	 x(2,1) = 19.78	 x(2,2) = 16.78	 x(2,3) = 7.75	 
x(3,0) = 10.00	 x(3,1) = 0.00	 x(3,2) = 20.91	 x(3,3) = 7.00	 
y(0,1,0) = -0.00	 y(1,0,0) = 1.00	 
y(0,2,0) = 0.88	 y(2,0,0) = 0.12	 
y(0,3,0) = 0.90	 y(3,0,0) = 0.10	 
y(1,2,0) = 0.97	 y(2,1,0) = 0.03	 
y(1,3,0) = 0.55	 y(3,1,0) = 0.45	 
y(2,3,0) = 0.42	 y(3,2,0) = 0.58	 
y(0,1,1) = 0.00	 y(1,0,1) = 1.00	 
y(0,2,1) = 0.19	 y(2,0,1) = 0.81	 
y(0,3,1) = 0.00	 y(3,0,1) = 1.00	 
y(1,2,1) = 0.94	 y(2,1,1) = 0.06	 
y(1,3,1) = 0.07	 y(3,1,1) = 0.93	 
y(2,3,1) = 0.00	 y(3,2,1) = 1.00	 
y(0,1,2) = 0.24	 y(1,0,2) = 0.76	 
y(0,2,2) = 0.07	 y(2,0,2) = 0.93	 
y(0,3,2) = 0.81	 y(3,0,2) = 0.19	 
y(1,2,2) = 0.69	 y(2,1,2) = 0.31	 
y(1,3,2) = 0.95	 y(3,1,2) = 0.05	 
y(2,3,2) = 0.87	 y(3,2,2) = 0.13	 
y(0,1,3) = 0.00	 y(1,0,3) = 1.00	 
y(0,2,3) = 0.65	 y(2,0,3) = 0.35	 
y(0,3,3) = 0.10	 y(3,0,3) = 0.90	 
y(1,2,3) = 0.86	 y(2,1,3) = 0.14	 
y(1,3,3) = 0.84	 y(3,1,3) = 0.16	 
y(2,3,3) = 0.58	 y(3,2,3) = 0.42	 
obj:  0.9394760856055387
solutions:  1
+ 0.10813823857302118x(3,3) + 0.020066889632107014x(2,3) + 0.0022296544035674526x(0,3) 
[(3, 3), (3, 0), (2, 0), (2, 3), (1, 0), (0, 3)]
cliques:  1 mip: 95
C:  32.000000000000014
x(0,0) = 2.39	 x(0,1) = 23.48	 x(0,2) = 17.48	 x(0,3) = 12.39	 
x(1,0) = 1.27	 x(1,1) = 9.27	 x(1,2) = 14.41	 x(1,3) = 2.27	 
x(2,0) = 26.38	 x(2,1) = 19.38	 x(2,2) = 16.38	 x(2,3) = 7.25	 
x(3,0) = 10.65	 x(3,1) = 0.65	 x(3,2) = 20.75	 x(3,3) = 7.65	 
y(0,1,0) = 0.00	 y(1,0,0) = 1.00	 
y(0,2,0) = 0.70	 y(2,0,0) = 0.30	 
y(0,3,0) = 0.91	 y(3,0,0) = 0.09	 
y(1,2,0) = 1.00	 y(2,1,0) = 0.00	 
y(1,3,0) = 0.54	 y(3,1,0) = 0.46	 
y(2,3,0) = 0.44	 y(3,2,0) = 0.56	 
y(0,1,1) = 0.00	 y(1,0,1) = 1.00	 
y(0,2,1) = 0.24	 y(2,0,1) = 0.76	 
y(0,3,1) = 0.00	 y(3,0,1) = 1.00	 
y(1,2,1) = 0.99	 y(2,1,1) = 0.01	 
y(1,3,1) = 0.07	 y(3,1,1) = 0.93	 
y(2,3,1) = 0.00	 y(3,2,1) = 1.00	 
y(0,1,2) = 0.40	 y(1,0,2) = 0.60	 
y(0,2,2) = 0.08	 y(2,0,2) = 0.92	 
y(0,3,2) = 0.40	 y(3,0,2) = 0.60	 
y(1,2,2) = 0.77	 y(2,1,2) = 0.23	 
y(1,3,2) = 0.84	 y(3,1,2) = 0.16	 
y(2,3,2) = 0.94	 y(3,2,2) = 0.06	 
y(0,1,3) = 0.00	 y(1,0,3) = 1.00	 
y(0,2,3) = 0.54	 y(2,0,3) = 0.46	 
y(0,3,3) = 0.09	 y(3,0,3) = 0.91	 
y(1,2,3) = 0.93	 y(2,1,3) = 0.07	 
y(1,3,3) = 0.78	 y(3,1,3) = 0.22	 
y(2,3,3) = 0.67	 y(3,2,3) = 0.33	 
obj:  1.0
erro
[(1, 2), (3, 0), (2, 0), (2, 3), (1, 0), (0, 2), (0, 3)]
cliques:  0 mip: 96
C:  32.22887835217457
x(0,0) = 3.55	 x(0,1) = 21.95	 x(0,2) = 15.95	 x(0,3) = 13.55	 
x(1,0) = 2.02	 x(1,1) = 10.02	 x(1,2) = 15.02	 x(1,3) = 3.02	 
x(2,0) = 30.22	 x(2,1) = 23.22	 x(2,2) = 19.61	 x(2,3) = 10.61	 
x(3,0) = 10.00	 x(3,1) = 0.00	 x(3,2) = 21.86	 x(3,3) = 7.00	 
y(0,1,0) = 0.00	 y(1,0,0) = 1.00	 
y(0,2,0) = 0.82	 y(2,0,0) = 0.18	 
y(0,3,0) = 0.82	 y(3,0,0) = 0.18	 
y(1,2,0) = 0.99	 y(2,1,0) = 0.01	 
y(1,3,0) = 0.87	 y(3,1,0) = 0.13	 
y(2,3,0) = 0.33	 y(3,2,0) = 0.67	 
y(0,1,1) = 0.01	 y(1,0,1) = 0.99	 
y(0,2,1) = 0.34	 y(2,0,1) = 0.66	 
y(0,3,1) = 0.00	 y(3,0,1) = 1.00	 
y(1,2,1) = 1.00	 y(2,1,1) = 0.00	 
y(1,3,1) = 0.40	 y(3,1,1) = 0.60	 
y(2,3,1) = 0.00	 y(3,2,1) = 1.00	 
y(0,1,2) = 0.56	 y(1,0,2) = 0.44	 
y(0,2,2) = 0.27	 y(2,0,2) = 0.73	 
y(0,3,2) = 0.97	 y(3,0,2) = 0.03	 
y(1,2,2) = 0.58	 y(2,1,2) = 0.42	 
y(1,3,2) = 0.95	 y(3,1,2) = 0.05	 
y(2,3,2) = 0.96	 y(3,2,2) = 0.04	 
y(0,1,3) = 0.00	 y(1,0,3) = 1.00	 
y(0,2,3) = 0.26	 y(2,0,3) = 0.74	 
y(0,3,3) = 0.18	 y(3,0,3) = 0.82	 
y(1,2,3) = 0.96	 y(2,1,3) = 0.04	 
y(1,3,3) = 0.60	 y(3,1,3) = 0.40	 
y(2,3,3) = 0.00	 y(3,2,3) = 1.00	 
obj:  0.9044085407644866
solutions:  1
+ 0.013698630136986313x(1,3) + 0.1232876712328767x(3,3) 
[(1, 2), (1, 3), (3, 3), (3, 1), (1, 1), (2, 2), (0, 2)]
cliques:  1 mip: 84
C:  32.99999633988681
x(0,0) = 3.41	 x(0,1) = 24.17	 x(0,2) = 16.79	 x(0,3) = 13.41	 
x(1,0) = 0.98	 x(1,1) = 10.57	 x(1,2) = 15.57	 x(1,3) = 1.98	 
x(2,0) = 26.02	 x(2,1) = 19.02	 x(2,2) = 16.02	 x(2,3) = 7.02	 
x(3,0) = 10.89	 x(3,1) = 0.00	 x(3,2) = 21.00	 x(3,3) = 7.89	 
y(0,1,0) = 0.00	 y(1,0,0) = 1.00	 
y(0,2,0) = 0.83	 y(2,0,0) = 0.17	 
y(0,3,0) = 0.87	 y(3,0,0) = 0.13	 
y(1,2,0) = 0.91	 y(2,1,0) = 0.09	 
y(1,3,0) = 0.87	 y(3,1,0) = 0.13	 
y(2,3,0) = 0.05	 y(3,2,0) = 0.95	 
y(0,1,1) = 0.00	 y(1,0,1) = 1.00	 
y(0,2,1) = 0.07	 y(2,0,1) = 0.93	 
y(0,3,1) = 0.00	 y(3,0,1) = 1.00	 
y(1,2,1) = 1.00	 y(2,1,1) = 0.00	 
y(1,3,1) = 0.15	 y(3,1,1) = 0.85	 
y(2,3,1) = 0.00	 y(3,2,1) = 1.00	 
y(0,1,2) = 0.39	 y(1,0,2) = 0.61	 
y(0,2,2) = 0.09	 y(2,0,2) = 0.91	 
y(0,3,2) = 0.88	 y(3,0,2) = 0.12	 
y(1,2,2) = 0.26	 y(2,1,2) = 0.74	 
y(1,3,2) = 0.80	 y(3,1,2) = 0.20	 
y(2,3,2) = 0.69	 y(3,2,2) = 0.31	 
y(0,1,3) = 0.00	 y(1,0,3) = 1.00	 
y(0,2,3) = 0.20	 y(2,0,3) = 0.80	 
y(0,3,3) = 0.13	 y(3,0,3) = 0.87	 
y(1,2,3) = 0.72	 y(2,1,3) = 0.28	 
y(1,3,3) = 0.64	 y(3,1,3) = 0.36	 
y(2,3,3) = 0.46	 y(3,2,3) = 0.54	 
obj:  0.796343826216347
solutions:  1
+ 0.07082152974504248x(1,3) + 0.022662889518413592x(3,3) + 0.06798866855524079x(2,3) 
[(1, 2), (3, 2), (1, 3), (3, 3), (2, 3), (2, 2), (0, 2)]
cliques:  1 mip: 86
C:  32.99999633988682
x(0,0) = 2.72	 x(0,1) = 24.07	 x(0,2) = 17.00	 x(0,3) = 12.72	 
x(1,0) = 0.64	 x(1,1) = 9.12	 x(1,2) = 15.00	 x(1,3) = 1.64	 
x(2,0) = 29.36	 x(2,1) = 22.36	 x(2,2) = 19.36	 x(2,3) = 10.36	 
x(3,0) = 10.93	 x(3,1) = 0.00	 x(3,2) = 23.00	 x(3,3) = 7.93	 
y(0,1,0) = 0.00	 y(1,0,0) = 1.00	 
y(0,2,0) = 0.87	 y(2,0,0) = 0.13	 
y(0,3,0) = 0.91	 y(3,0,0) = 0.09	 
y(1,2,0) = 0.93	 y(2,1,0) = 0.07	 
y(1,3,0) = 0.89	 y(3,1,0) = 0.11	 
y(2,3,0) = 0.04	 y(3,2,0) = 0.96	 
y(0,1,1) = 0.00	 y(1,0,1) = 1.00	 
y(0,2,1) = 0.20	 y(2,0,1) = 0.80	 
y(0,3,1) = 0.00	 y(3,0,1) = 1.00	 
y(1,2,1) = 1.00	 y(2,1,1) = 0.00	 
y(1,3,1) = 0.09	 y(3,1,1) = 0.91	 
y(2,3,1) = 0.00	 y(3,2,1) = 1.00	 
y(0,1,2) = 0.29	 y(1,0,2) = 0.71	 
y(0,2,2) = 0.21	 y(2,0,2) = 0.79	 
y(0,3,2) = 1.00	 y(3,0,2) = 0.00	 
y(1,2,2) = 0.48	 y(2,1,2) = 0.52	 
y(1,3,2) = 1.00	 y(3,1,2) = 0.00	 
y(2,3,2) = 0.89	 y(3,2,2) = 0.11	 
y(0,1,3) = 0.00	 y(1,0,3) = 1.00	 
y(0,2,3) = 0.40	 y(2,0,3) = 0.60	 
y(0,3,3) = 0.09	 y(3,0,3) = 0.91	 
y(1,2,3) = 0.79	 y(2,1,3) = 0.21	 
y(1,3,3) = 0.74	 y(3,1,3) = 0.26	 
y(2,3,3) = 0.37	 y(3,2,3) = 0.63	 
obj:  1.0186914845640558
erro
[(1, 2), (3, 3), (2, 3), (2, 2), (0, 3), (0, 2)]
cliques:  0 mip: 89
C:  32.99999633988681
x(0,0) = 1.94	 x(0,1) = 24.22	 x(0,2) = 16.71	 x(0,3) = 11.94	 
x(1,0) = 0.26	 x(1,1) = 8.26	 x(1,2) = 14.71	 x(1,3) = 1.26	 
x(2,0) = 29.74	 x(2,1) = 22.74	 x(2,2) = 19.74	 x(2,3) = 10.74	 
x(3,0) = 10.97	 x(3,1) = 0.64	 x(3,2) = 22.71	 x(3,3) = 7.97	 
y(0,1,0) = 0.00	 y(1,0,0) = 1.00	 
y(0,2,0) = 0.91	 y(2,0,0) = 0.09	 
y(0,3,0) = 0.95	 y(3,0,0) = 0.05	 
y(1,2,0) = 0.90	 y(2,1,0) = 0.10	 
y(1,3,0) = 0.92	 y(3,1,0) = 0.08	 
y(2,3,0) = 0.03	 y(3,2,0) = 0.97	 
y(0,1,1) = 0.00	 y(1,0,1) = 1.00	 
y(0,2,1) = 0.21	 y(2,0,1) = 0.79	 
y(0,3,1) = 0.00	 y(3,0,1) = 1.00	 
y(1,2,1) = 1.00	 y(2,1,1) = 0.00	 
y(1,3,1) = 0.03	 y(3,1,1) = 0.97	 
y(2,3,1) = 0.00	 y(3,2,1) = 1.00	 
y(0,1,2) = 0.22	 y(1,0,2) = 0.78	 
y(0,2,2) = 0.24	 y(2,0,2) = 0.76	 
y(0,3,2) = 1.00	 y(3,0,2) = 0.00	 
y(1,2,2) = 0.79	 y(2,1,2) = 0.21	 
y(1,3,2) = 1.00	 y(3,1,2) = 0.00	 
y(2,3,2) = 1.00	 y(3,2,2) = 0.00	 
y(0,1,3) = 0.00	 y(1,0,3) = 1.00	 
y(0,2,3) = 0.58	 y(2,0,3) = 0.42	 
y(0,3,3) = 0.05	 y(3,0,3) = 0.95	 
y(1,2,3) = 0.97	 y(2,1,3) = 0.03	 
y(1,3,3) = 0.86	 y(3,1,3) = 0.14	 
y(2,3,3) = 0.36	 y(3,2,3) = 0.64	 
obj:  1.0
erro
[(1, 2), (3, 3), (2, 3), (2, 2), (0, 3), (0, 2)]
cliques:  0 mip: 68
C:  33.00225249557947
x(0,0) = 2.65	 x(0,1) = 23.70	 x(0,2) = 16.98	 x(0,3) = 12.65	 
x(1,0) = 0.59	 x(1,1) = 8.59	 x(1,2) = 15.00	 x(1,3) = 1.59	 
x(2,0) = 32.00	 x(2,1) = 25.00	 x(2,2) = 22.00	 x(2,3) = 10.40	 
x(3,0) = 10.93	 x(3,1) = 0.38	 x(3,2) = 22.99	 x(3,3) = 7.93	 
y(0,1,0) = 0.00	 y(1,0,0) = 1.00	 
y(0,2,0) = 0.87	 y(2,0,0) = 0.13	 
y(0,3,0) = 0.91	 y(3,0,0) = 0.09	 
y(1,2,0) = 0.95	 y(2,1,0) = 0.05	 
y(1,3,0) = 0.90	 y(3,1,0) = 0.10	 
y(2,3,0) = 0.04	 y(3,2,0) = 0.96	 
y(0,1,1) = 0.00	 y(1,0,1) = 1.00	 
y(0,2,1) = 0.32	 y(2,0,1) = 0.68	 
y(0,3,1) = 0.00	 y(3,0,1) = 1.00	 
y(1,2,1) = 1.00	 y(2,1,1) = 0.00	 
y(1,3,1) = 0.05	 y(3,1,1) = 0.95	 
y(2,3,1) = 0.00	 y(3,2,1) = 1.00	 
y(0,1,2) = 0.28	 y(1,0,2) = 0.72	 
y(0,2,2) = 0.32	 y(2,0,2) = 0.68	 
y(0,3,2) = 1.00	 y(3,0,2) = 0.00	 
y(1,2,2) = 0.97	 y(2,1,2) = 0.03	 
y(1,3,2) = 1.00	 y(3,1,2) = 0.00	 
y(2,3,2) = 0.88	 y(3,2,2) = 0.12	 
y(0,1,3) = 0.00	 y(1,0,3) = 1.00	 
y(0,2,3) = 0.41	 y(2,0,3) = 0.59	 
y(0,3,3) = 0.09	 y(3,0,3) = 0.91	 
y(1,2,3) = 1.00	 y(2,1,3) = 0.00	 
y(1,3,3) = 0.75	 y(3,1,3) = 0.25	 
y(2,3,3) = 0.37	 y(3,2,3) = 0.63	 
obj:  1.0949373801613262
erro
[(0, 1), (3, 3), (2, 1), (2, 3), (2, 2), (0, 3), (0, 2)]
cliques:  0 mip: 23
C:  33.00379488025265
x(0,0) = 1.04	 x(0,1) = 22.00	 x(0,2) = 16.00	 x(0,3) = 11.04	 
x(1,0) = 0.04	 x(1,1) = 8.87	 x(1,2) = 15.00	 x(1,3) = 1.19	 
x(2,0) = 32.00	 x(2,1) = 24.32	 x(2,2) = 21.32	 x(2,3) = 10.81	 
x(3,0) = 10.98	 x(3,1) = 0.89	 x(3,2) = 22.98	 x(3,3) = 7.98	 
y(0,1,0) = 0.00	 y(1,0,0) = 1.00	 
y(0,2,0) = 0.73	 y(2,0,0) = 0.27	 
y(0,3,0) = 1.00	 y(3,0,0) = 0.00	 
y(1,2,0) = 0.77	 y(2,1,0) = 0.23	 
y(1,3,0) = 0.91	 y(3,1,0) = 0.09	 
y(2,3,0) = 0.04	 y(3,2,0) = 0.96	 
y(0,1,1) = 0.00	 y(1,0,1) = 1.00	 
y(0,2,1) = 0.85	 y(2,0,1) = 0.15	 
y(0,3,1) = 0.00	 y(3,0,1) = 1.00	 
y(1,2,1) = 1.00	 y(2,1,1) = 0.00	 
y(1,3,1) = 0.04	 y(3,1,1) = 0.96	 
y(2,3,1) = 0.00	 y(3,2,1) = 1.00	 
y(0,1,2) = 0.42	 y(1,0,2) = 0.58	 
y(0,2,2) = 0.91	 y(2,0,2) = 0.09	 
y(0,3,2) = 1.00	 y(3,0,2) = 0.00	 
y(1,2,2) = 0.95	 y(2,1,2) = 0.05	 
y(1,3,2) = 1.00	 y(3,1,2) = 0.00	 
y(2,3,2) = 0.33	 y(3,2,2) = 0.67	 
y(0,1,3) = 0.00	 y(1,0,3) = 1.00	 
y(0,2,3) = 0.69	 y(2,0,3) = 0.31	 
y(0,3,3) = 0.00	 y(3,0,3) = 1.00	 
y(1,2,3) = 0.99	 y(2,1,3) = 0.01	 
y(1,3,3) = 0.99	 y(3,1,3) = 0.01	 
y(2,3,3) = 0.36	 y(3,2,3) = 0.64	 
obj:  0.9203670723123729
solutions:  1
+ 0.02252727912706795x(1,2) + 0.017599436818021806x(3,2) + 0.0008213070515077034x(3,3) + 0.00023465915757362962x(0,3) + 0.010559662090813094x(0,2) 
[(1, 2), (3, 2), (3, 3), (2, 3), (2, 2), (0, 3), (0, 2)]
cliques:  1 mip: 45
C:  33.5630383219609
x(0,0) = 6.74	 x(0,1) = 24.40	 x(0,2) = 17.74	 x(0,3) = 16.74	 
x(1,0) = 2.48	 x(1,1) = 12.81	 x(1,2) = 18.01	 x(1,3) = 5.81	 
x(2,0) = 32.56	 x(2,1) = 25.56	 x(2,2) = 22.56	 x(2,3) = 5.18	 
x(3,0) = 13.41	 x(3,1) = 3.41	 x(3,2) = 22.41	 x(3,3) = 10.41	 
y(0,1,0) = 0.00	 y(1,0,0) = 1.00	 
y(0,2,0) = 0.61	 y(2,0,0) = 0.39	 
y(0,3,0) = 0.83	 y(3,0,0) = 0.17	 
y(1,2,0) = 0.73	 y(2,1,0) = 0.27	 
y(1,3,0) = 0.59	 y(3,1,0) = 0.41	 
y(2,3,0) = 0.19	 y(3,2,0) = 0.81	 
y(0,1,1) = 0.00	 y(1,0,1) = 1.00	 
y(0,2,1) = 0.31	 y(2,0,1) = 0.69	 
y(0,3,1) = 0.00	 y(3,0,1) = 1.00	 
y(1,2,1) = 1.00	 y(2,1,1) = 0.00	 
y(1,3,1) = 0.10	 y(3,1,1) = 0.90	 
y(2,3,1) = 0.00	 y(3,2,1) = 1.00	 
y(0,1,2) = 0.53	 y(1,0,2) = 0.47	 
y(0,2,2) = 0.57	 y(2,0,2) = 0.43	 
y(0,3,2) = 0.93	 y(3,0,2) = 0.07	 
y(1,2,2) = 0.90	 y(2,1,2) = 0.10	 
y(1,3,2) = 0.86	 y(3,1,2) = 0.14	 
y(2,3,2) = 0.81	 y(3,2,2) = 0.19	 
y(0,1,3) = 0.00	 y(1,0,3) = 1.00	 
y(0,2,3) = 0.00	 y(2,0,3) = 1.00	 
y(0,3,3) = 0.17	 y(3,0,3) = 0.83	 
y(1,2,3) = 0.37	 y(2,1,3) = 0.63	 
y(1,3,3) = 0.32	 y(3,1,3) = 0.68	 
y(2,3,3) = 0.57	 y(3,2,3) = 0.43	 
obj:  1.1733238894219986
erro
[(1, 2), (3, 3), (3, 0), (2, 3), (2, 2), (1, 0), (0, 2)]
cliques:  0 mip: 94
C:  33.99999718124104
x(0,0) = 5.94	 x(0,1) = 24.31	 x(0,2) = 18.31	 x(0,3) = 17.31	 
x(1,0) = 0.00	 x(1,1) = 11.88	 x(1,2) = 16.88	 x(1,3) = 4.88	 
x(2,0) = 33.00	 x(2,1) = 26.00	 x(2,2) = 21.02	 x(2,3) = 6.69	 
x(3,0) = 11.82	 x(3,1) = 1.82	 x(3,2) = 23.59	 x(3,3) = 8.82	 
y(0,1,0) = 0.00	 y(1,0,0) = 1.00	 
y(0,2,0) = 0.94	 y(2,0,0) = 0.06	 
y(0,3,0) = 0.79	 y(3,0,0) = 0.21	 
y(1,2,0) = 0.79	 y(2,1,0) = 0.21	 
y(1,3,0) = 0.62	 y(3,1,0) = 0.38	 
y(2,3,0) = 0.30	 y(3,2,0) = 0.70	 
y(0,1,1) = 0.20	 y(1,0,1) = 0.80	 
y(0,2,1) = 0.47	 y(2,0,1) = 0.53	 
y(0,3,1) = 0.00	 y(3,0,1) = 1.00	 
y(1,2,1) = 1.00	 y(2,1,1) = 0.00	 
y(1,3,1) = 0.13	 y(3,1,1) = 0.87	 
y(2,3,1) = 0.00	 y(3,2,1) = 1.00	 
y(0,1,2) = 0.20	 y(1,0,2) = 0.80	 
y(0,2,2) = 0.23	 y(2,0,2) = 0.77	 
y(0,3,2) = 0.96	 y(3,0,2) = 0.04	 
y(1,2,2) = 0.67	 y(2,1,2) = 0.33	 
y(1,3,2) = 0.95	 y(3,1,2) = 0.05	 
y(2,3,2) = 0.97	 y(3,2,2) = 0.03	 
y(0,1,3) = 0.00	 y(1,0,3) = 1.00	 
y(0,2,3) = 0.00	 y(2,0,3) = 1.00	 
y(0,3,3) = 0.21	 y(3,0,3) = 0.79	 
y(1,2,3) = 0.69	 y(2,1,3) = 0.31	 
y(1,3,3) = 0.29	 y(3,1,3) = 0.71	 
y(2,3,3) = 0.49	 y(3,2,3) = 0.51	 
obj:  1.1284254633576194
erro
[(0, 1), (1, 2), (3, 3), (3, 0), (2, 1), (2, 3), (2, 2), (1, 0)]
cliques:  0 mip: 103
C:  34.127690785962976
x(0,0) = 6.27	 x(0,1) = 27.13	 x(0,2) = 19.07	 x(0,3) = 18.07	 
x(1,0) = 2.97	 x(1,1) = 10.97	 x(1,2) = 15.97	 x(1,3) = 3.97	 
x(2,0) = 33.13	 x(2,1) = 23.03	 x(2,2) = 20.03	 x(2,3) = 6.53	 
x(3,0) = 15.13	 x(3,1) = 3.97	 x(3,2) = 24.13	 x(3,3) = 12.13	 
y(0,1,0) = 0.00	 y(1,0,0) = 1.00	 
y(0,2,0) = 0.97	 y(2,0,0) = 0.03	 
y(0,3,0) = 0.94	 y(3,0,0) = 0.06	 
y(1,2,0) = 0.92	 y(2,1,0) = 0.08	 
y(1,3,0) = 0.62	 y(3,1,0) = 0.38	 
y(2,3,0) = 0.38	 y(3,2,0) = 0.62	 
y(0,1,1) = 0.00	 y(1,0,1) = 1.00	 
y(0,2,1) = 0.11	 y(2,0,1) = 0.89	 
y(0,3,1) = 0.00	 y(3,0,1) = 1.00	 
y(1,2,1) = 1.00	 y(2,1,1) = 0.00	 
y(1,3,1) = 0.00	 y(3,1,1) = 1.00	 
y(2,3,1) = 0.00	 y(3,2,1) = 1.00	 
y(0,1,2) = 0.62	 y(1,0,2) = 0.38	 
y(0,2,2) = 0.82	 y(2,0,2) = 0.18	 
y(0,3,2) = 0.94	 y(3,0,2) = 0.06	 
y(1,2,2) = 0.89	 y(2,1,2) = 0.11	 
y(1,3,2) = 1.00	 y(3,1,2) = 0.00	 
y(2,3,2) = 1.00	 y(3,2,2) = 0.00	 
y(0,1,3) = 0.00	 y(1,0,3) = 1.00	 
y(0,2,3) = 0.00	 y(2,0,3) = 1.00	 
y(0,3,3) = 0.06	 y(3,0,3) = 0.94	 
y(1,2,3) = 0.74	 y(2,1,3) = 0.26	 
y(1,3,3) = 0.46	 y(3,1,3) = 0.54	 
y(2,3,3) = 0.58	 y(3,2,3) = 0.42	 
obj:  1.0000000000000002
erro
[(1, 2), (1, 3), (3, 3), (3, 0), (2, 0), (2, 3), (0, 2)]
cliques:  0 mip: 90
C:  34.9999928026074
x(0,0) = 9.52	 x(0,1) = 26.52	 x(0,2) = 20.52	 x(0,3) = 19.52	 
x(1,0) = 0.00	 x(1,1) = 8.00	 x(1,2) = 15.05	 x(1,3) = 1.00	 
x(2,0) = 34.00	 x(2,1) = 27.00	 x(2,2) = 20.00	 x(2,3) = 11.00	 
x(3,0) = 11.00	 x(3,1) = 1.00	 x(3,2) = 24.61	 x(3,3) = 8.00	 
y(0,1,0) = 0.00	 y(1,0,0) = 1.00	 
y(0,2,0) = 0.90	 y(2,0,0) = 0.10	 
y(0,3,0) = 0.52	 y(3,0,0) = 0.48	 
y(1,2,0) = 1.00	 y(2,1,0) = 0.00	 
y(1,3,0) = 0.74	 y(3,1,0) = 0.26	 
y(2,3,0) = 0.00	 y(3,2,0) = 1.00	 
y(0,1,1) = 0.00	 y(1,0,1) = 1.00	 
y(0,2,1) = 0.29	 y(2,0,1) = 0.71	 
y(0,3,1) = 0.00	 y(3,0,1) = 1.00	 
y(1,2,1) = 1.00	 y(2,1,1) = 0.00	 
y(1,3,1) = 0.00	 y(3,1,1) = 1.00	 
y(2,3,1) = 0.00	 y(3,2,1) = 1.00	 
y(0,1,2) = 0.08	 y(1,0,2) = 0.92	 
y(0,2,2) = 0.77	 y(2,0,2) = 0.23	 
y(0,3,2) = 0.87	 y(3,0,2) = 0.13	 
y(1,2,2) = 0.91	 y(2,1,2) = 0.09	 
y(1,3,2) = 0.95	 y(3,1,2) = 0.05	 
y(2,3,2) = 1.00	 y(3,2,2) = 0.00	 
y(0,1,3) = 0.00	 y(1,0,3) = 1.00	 
y(0,2,3) = 0.02	 y(2,0,3) = 0.98	 
y(0,3,3) = 0.41	 y(3,0,3) = 0.59	 
y(1,2,3) = 0.74	 y(2,1,3) = 0.26	 
y(1,3,3) = 0.63	 y(3,1,3) = 0.37	 
y(2,3,3) = 0.54	 y(3,2,3) = 0.46	 
obj:  0.9968842018416064
solutions:  1
+ 0.06229508196721308x(1,3) + 0.019672131147541x(3,3) + 0.05901639344262296x(2,3) + 0.0065573770491803235x(0,3) 
[(0, 0), (1, 3), (3, 3), (3, 0), (2, 3), (0, 3)]
cliques:  1 mip: 0
C:  34.9999928026074
x(0,0) = 9.52	 x(0,1) = 26.52	 x(0,2) = 20.52	 x(0,3) = 19.52	 
x(1,0) = 0.00	 x(1,1) = 8.00	 x(1,2) = 15.05	 x(1,3) = 1.00	 
x(2,0) = 34.00	 x(2,1) = 27.00	 x(2,2) = 20.05	 x(2,3) = 11.05	 
x(3,0) = 11.00	 x(3,1) = 1.00	 x(3,2) = 24.61	 x(3,3) = 8.00	 
y(0,1,0) = 0.00	 y(1,0,0) = 1.00	 
y(0,2,0) = 0.90	 y(2,0,0) = 0.10	 
y(0,3,0) = 0.52	 y(3,0,0) = 0.48	 
y(1,2,0) = 1.00	 y(2,1,0) = 0.00	 
y(1,3,0) = 0.74	 y(3,1,0) = 0.26	 
y(2,3,0) = 0.00	 y(3,2,0) = 1.00	 
y(0,1,1) = 0.00	 y(1,0,1) = 1.00	 
y(0,2,1) = 0.29	 y(2,0,1) = 0.71	 
y(0,3,1) = 0.00	 y(3,0,1) = 1.00	 
y(1,2,1) = 1.00	 y(2,1,1) = 0.00	 
y(1,3,1) = 0.00	 y(3,1,1) = 1.00	 
y(2,3,1) = 0.00	 y(3,2,1) = 1.00	 
y(0,1,2) = 0.08	 y(1,0,2) = 0.92	 
y(0,2,2) = 0.77	 y(2,0,2) = 0.23	 
y(0,3,2) = 0.87	 y(3,0,2) = 0.13	 
y(1,2,2) = 0.91	 y(2,1,2) = 0.09	 
y(1,3,2) = 0.95	 y(3,1,2) = 0.05	 
y(2,3,2) = 1.00	 y(3,2,2) = 0.00	 
y(0,1,3) = 0.00	 y(1,0,3) = 1.00	 
y(0,2,3) = 0.02	 y(2,0,3) = 0.98	 
y(0,3,3) = 0.41	 y(3,0,3) = 0.59	 
y(1,2,3) = 0.74	 y(2,1,3) = 0.26	 
y(1,3,3) = 0.63	 y(3,1,3) = 0.37	 
y(2,3,3) = 0.54	 y(3,2,3) = 0.46	 
obj:  0.9999999999999996
erro
[(0, 0), (1, 3), (3, 3), (3, 0), (2, 3), (0, 3)]
cliques:  0 mip: 0
iterações: 16 cortes cliques encontrados: 8 mip: 1012 objective:  34.9999928026074
Coin0506I Presolve 157 (-171) rows, 90 (-71) columns and 490 (-260) elements
Clp1000I sum of infeasibilities 1.79124e-08 - average 1.14092e-10, 0 fixed columns
Coin0506I Presolve 157 (0) rows, 90 (0) columns and 490 (0) elements
Clp0029I End of values pass after 90 iterations
Clp0000I Optimal - objective value 29
Clp0000I Optimal - objective value 29
Coin0511I After Postsolve, objective 29, infeasibilities - dual 0 (0), primal 0 (0)
Clp0000I Optimal - objective value 29
Clp0000I Optimal - objective value 29
Clp0000I Optimal - objective value 29
Coin0511I After Postsolve, objective 29, infeasibilities - dual 0 (0), primal 0 (0)
Clp0032I Optimal objective 29 - 0 iterations time 0.012, Presolve 0.00, Idiot 0.01
Coin3009W Conflict graph built in 0.000 seconds, density: 0.090%
